/*********************************************
 * OPL 12.6.0.0 Data
 * Author: Adrian Rodriguez Bazaga, Pau Rodriguez Esmerats
 * Creation Date: 01/12/2017 at 09:09:15
 *********************************************/

nNurses=598;
maxConsec=2;
maxPresence=7;
maxHours=5;
minHours=1;
demand= [125 128 174 182 128 174 182 135 122 71 5 19 10 27 18 20 13 13 13 8 107 188 89 156  ];
